\ENCODING=ISO-8859-1
\Problem name: ilog.cplex

Minimize
 obj1: 103853 x1 + 107421 x2 + 90671 x3 + 95180 x4 + 96260 x5 + 91003 x6
       + 90796 x7 + 105538 x8 + 97092 x9 + 109813 x10 + 105931 x11 + 108372 x12
       + 94495 x13 + 92395 x14 + 109263 x15 + 107531 x16 + 101353 x17
       + 93870 x18 + 96265 x19 + 92881 x20 + 105197 x21 + 93887 x22
       + 100622 x23 + 104429 x24 + 104005 x25 + 101091 x26 + 93140 x27
       + 94246 x28 + 105589 x29 + 108818 x30 + 103466 x31 + 98383 x32
       + 103954 x33 + 99378 x34 + 105437 x35 + 101500 x36 + 97256 x37
       + 107610 x38 + 93403 x39 + 97987 x40 + 98878 x41 + 108306 x42
       + 109148 x43 + 105152 x44 + 95693 x45 + 106653 x46 + 96790 x47
       + 106369 x48 + 105688 x49 + 106027 x50 + 106565 x51 + 95094 x52
       + 100921 x53 + 103249 x54 + 97431 x55 + 94255 x56 + 91167 x57
       + 97886 x58 + 103164 x59 + 99773 x60 + 101825 x61 + 94735 x62
       + 91823 x63 + 95391 x64 + 92950 x65 + 106307 x66 + 100411 x67
       + 94531 x68 + 98212 x69 + 90301 x70 + 90640 x71 + 107547 x72 + 99381 x73
       + 103804 x74 + 105758 x75 + 96766 x76 + 92442 x77 + 99151 x78
       + 96216 x79 + 100987 x80 + 95736 x81 + 92779 x82 + 101669 x83
       + 93243 x84 + 94665 x85 + 90823 x86 + 105745 x87 + 103815 x88
       + 108097 x89 + 94495 x90 + 106121 x91 + 98653 x92 + 91506 x93
       + 93926 x94 + 105068 x95 + 94307 x96 + 92355 x97 + 100402 x98
       + 108966 x99 + 107074 x100 + 104338 x101 + 103858 x102 + 109197 x103
       + 96236 x104 + 108841 x105 + 94971 x106 + 101377 x107 + 109145 x108
       + 104348 x109 + 99367 x110 + 105079 x111 + 109321 x112 + 107507 x113
       + 95224 x114 + 91965 x115 + 107840 x116 + 103174 x117 + 104918 x118
       + 96714 x119 + 102997 x120 + 103534 x121 + 102991 x122 + 100812 x123
       + 97666 x124 + 106712 x125 + 99949 x126 + 98378 x127 + 98347 x128
       + 104075 x129 + 94833 x130 + 108019 x131 + 101086 x132 + 94947 x133
       + 97790 x134 + 91762 x135 + 103585 x136 + 100563 x137 + 99003 x138
       + 99667 x139 + 102289 x140 + 90170 x141 + 101464 x142 + 109020 x143
       + 96073 x144 + 94526 x145 + 106397 x146 + 96145 x147 + 93986 x148
       + 91923 x149 + 109318 x150 + 109176 x151 + 107353 x152 + 107216 x153
       + 104552 x154 + 105779 x155 + 99241 x156 + 105249 x157 + 106525 x158
       + 91093 x159 + 97589 x160 + 106718 x161 + 97276 x162 + 98025 x163
       + 92229 x164 + 106652 x165 + 101360 x166 + 94595 x167 + 90566 x168
       + 93570 x169 + 91662 x170 + 101133 x171 + 101880 x172 + 90809 x173
       + 102669 x174 + 93917 x175 + 95993 x176 + 90608 x177 + 91322 x178
       + 101245 x179 + 98483 x180 + 101677 x181 + 107735 x182 + 99679 x183
       + 104871 x184 + 108323 x185 + 93040 x186 + 91572 x187 + 96608 x188
       + 103149 x189 + 97310 x190 + 102133 x191 + 91691 x192 + 106441 x193
       + 101172 x194 + 94953 x195 + 98161 x196 + 103321 x197 + 100871 x198
       + 100932 x199 + 109653 x200 + 102585 x201 + 92051 x202 + 90829 x203
       + 106328 x204 + 99754 x205 + 92894 x206 + 101580 x207 + 109308 x208
       + 100435 x209 + 92074 x210 + 107155 x211 + 102244 x212 + 102109 x213
       + 92278 x214 + 94605 x215 + 99333 x216 + 95178 x217 + 91051 x218
       + 106430 x219 + 100359 x220 + 107364 x221 + 97276 x222 + 101519 x223
       + 90205 x224 + 99513 x225 + 103798 x226 + 108632 x227 + 92854 x228
       + 105378 x229 + 104568 x230 + 98800 x231 + 97971 x232 + 93161 x233
       + 98105 x234 + 105948 x235 + 102006 x236 + 92367 x237 + 98173 x238
       + 98716 x239 + 105072 x240 + 99955 x241 + 94892 x242 + 98916 x243
       + 90822 x244 + 100170 x245 + 109641 x246 + 90456 x247 + 102425 x248
       + 100331 x249 + 91910 x250 + 90144 x251 + 92972 x252 + 103933 x253
       + 98295 x254 + 108894 x255 + 106517 x256 + 91192 x257 + 107496 x258
       + 100390 x259 + 105646 x260 + 92738 x261 + 102728 x262 + 91446 x263
       + 98963 x264 + 103715 x265 + 91784 x266 + 108706 x267 + 108453 x268
       + 97227 x269 + 108666 x270 + 107413 x271 + 100296 x272 + 96118 x273
       + 92728 x274 + 103350 x275 + 102605 x276 + 97689 x277 + 93947 x278
       + 109996 x279 + 104018 x280 + 97240 x281 + 106254 x282 + 109532 x283
       + 108221 x284 + 103214 x285 + 104774 x286 + 98521 x287 + 91180 x288
       + 99246 x289 + 97374 x290 + 106939 x291 + 90266 x292 + 106560 x293
       + 96096 x294 + 92675 x295 + 107395 x296 + 93912 x297 + 109852 x298
       + 102718 x299 + 85005 x300 + 195762 x301 + 183514 x302 + 192562 x303
       + 202815 x304 + 187382 x305 + 192684 x306 + 184976 x307 + 195114 x308
       + 192476 x309 + 204857 x310 + 187458 x311 + 186754 x312 + 183034 x313
       + 194779 x314 + 216890 x315 + 213826 x316 + 211735 x317 + 190246 x318
       + 196084 x319 + 211253 x320 + 207214 x321 + 201824 x322 + 185131 x323
       + 192870 x324 + 211824 x325 + 205377 x326 + 190295 x327 + 197842 x328
       + 190974 x329 + 211525 x330 + 189207 x331 + 189601 x332 + 188439 x333
       + 218662 x334 + 193359 x335 + 217854 x336 + 211153 x337 + 182485 x338
       + 214860 x339 + 192396 x340 + 199852 x341 + 204988 x342 + 194137 x343
       + 209386 x344 + 218516 x345 + 189690 x346 + 198776 x347 + 196398 x348
       + 215944 x349 + 187403 x350 + 200867 x351 + 181959 x352 + 216861 x353
       + 208124 x354 + 201255 x355 + 188480 x356 + 187831 x357 + 199675 x358
       + 193778 x359 + 288987 x360
Subject To
 c1:   x13 - x15 + x18 - x19 + x21 + x24 - x31 - x41 + x43 + x45 + x50 - x55
       + x58  = 0
 c2:   x73 - x75 + x78 - x79 + x81 + x84 - x91 - x101 + x103 + x105 + x110
       - x115 + x118  = 0
 c3:   x133 - x135 + x138 - x139 + x141 + x144 - x151 - x161 + x163 + x165
       + x170 - x175 + x178  = 0
 c4:   x193 - x195 + x198 - x199 + x201 + x204 - x211 - x221 + x223 + x225
       + x230 - x235 + x238  = 0
 c5:   x253 - x255 + x258 - x259 + x261 + x264 - x271 - x281 + x283 + x285
       + x290 - x295 + x298  = -1
 c6:   - x1 - x5 + x6 + x8 - x14 + x19 - x24 + x29 - x30 + x40 - x42 + x59
       - x60  = 0
 c7:   - x61 - x65 + x66 + x68 - x74 + x79 - x84 + x89 - x90 + x100 - x102
       + x119 - x120  = 0
 c8:   - x121 - x125 + x126 + x128 - x134 + x139 - x144 + x149 - x150 + x160
       - x162 + x179 - x180  = -1
 c9:   - x181 - x185 + x186 + x188 - x194 + x199 - x204 + x209 - x210 + x220
       - x222 + x239 - x240  = 0
 c10:  - x241 - x245 + x246 + x248 - x254 + x259 - x264 + x269 - x270 + x280
       - x282 + x299 - x300  = 0
 c11:  - x4 + x7 + x9 + x10 - x13 - x16 - x17 + x20 + x27 - x39 + x41 + x49
       + x60  = 0
 c12:  - x64 + x67 + x69 + x70 - x73 - x76 - x77 + x80 + x87 - x99 + x101
       + x109 + x120  = 0
 c13:  - x124 + x127 + x129 + x130 - x133 - x136 - x137 + x140 + x147 - x159
       + x161 + x169 + x180  = 0
 c14:  - x184 + x187 + x189 + x190 - x193 - x196 - x197 + x200 + x207 - x219
       + x221 + x229 + x240  = 0
 c15:  - x244 + x247 + x249 + x250 - x253 - x256 - x257 + x260 + x267 - x279
       + x281 + x289 + x300  = 0
 c16:  x2 - x7 + x11 - x12 - x21 - x26 - x36 + x39 + x42 - x47 + x51 - x53  = 1
 c17:  x62 - x67 + x71 - x72 - x81 - x86 - x96 + x99 + x102 - x107 + x111
       - x113  = 0
 c18:  x122 - x127 + x131 - x132 - x141 - x146 - x156 + x159 + x162 - x167
       + x171 - x173  = 0
 c19:  x182 - x187 + x191 - x192 - x201 - x206 - x216 + x219 + x222 - x227
       + x231 - x233  = 0
 c20:  x242 - x247 + x251 - x252 - x261 - x266 - x276 + x279 + x282 - x287
       + x291 - x293  = 1
 c21:  - x3 - x6 + x14 - x20 + x32 + x36 + x54 + x55 + x56 - x58  = 0
 c22:  - x63 - x66 + x74 - x80 + x92 + x96 + x114 + x115 + x116 - x118  = 1
 c23:  - x123 - x126 + x134 - x140 + x152 + x156 + x174 + x175 + x176 - x178
        = 0
 c24:  - x183 - x186 + x194 - x200 + x212 + x216 + x234 + x235 + x236 - x238
        = 1
 c25:  - x243 - x246 + x254 - x260 + x272 + x276 + x294 + x295 + x296 - x298
        = 0
 c26:  - x9 + x12 + x17 + x22 + x23 + x31 - x34 - x38 - x40 + x44 - x45 - x56
        = -1
 c27:  - x69 + x72 + x77 + x82 + x83 + x91 - x94 - x98 - x100 + x104 - x105
       - x116  = 0
 c28:  - x129 + x132 + x137 + x142 + x143 + x151 - x154 - x158 - x160 + x164
       - x165 - x176  = 0
 c29:  - x189 + x192 + x197 + x202 + x203 + x211 - x214 - x218 - x220 + x224
       - x225 - x236  = 0
 c30:  - x249 + x252 + x257 + x262 + x263 + x271 - x274 - x278 - x280 + x284
       - x285 - x296  = 0
 c31:  - x10 + x16 - x32 + x34 - x35 - x43 - x44 - x46 + x48 - x51 + x52 + x53
        = 0
 c32:  - x70 + x76 - x92 + x94 - x95 - x103 - x104 - x106 + x108 - x111 + x112
       + x113  = 0
 c33:  - x130 + x136 - x152 + x154 - x155 - x163 - x164 - x166 + x168 - x171
       + x172 + x173  = 0
 c34:  - x190 + x196 - x212 + x214 - x215 - x223 - x224 - x226 + x228 - x231
       + x232 + x233  = -1
 c35:  - x250 + x256 - x272 + x274 - x275 - x283 - x284 - x286 + x288 - x291
       + x292 + x293  = 0
 c36:  x15 - x18 + x25 - x29 + x30 - x33 + x46 + x47 - x49 - x52 - x54 - x57
        = 0
 c37:  x75 - x78 + x85 - x89 + x90 - x93 + x106 + x107 - x109 - x112 - x114
       - x117  = 0
 c38:  x135 - x138 + x145 - x149 + x150 - x153 + x166 + x167 - x169 - x172
       - x174 - x177  = 0
 c39:  x195 - x198 + x205 - x209 + x210 - x213 + x226 + x227 - x229 - x232
       - x234 - x237  = 0
 c40:  x255 - x258 + x265 - x269 + x270 - x273 + x286 + x287 - x289 - x292
       - x294 - x297  = 0
 c41:  x3 + x4 + x5 - x11 - x22 - x27 + x28 + x33 + x35 - x37 + x38 - x48 - x59
        = 0
 c42:  x63 + x64 + x65 - x71 - x82 - x87 + x88 + x93 + x95 - x97 + x98 - x108
       - x119  = -1
 c43:  x123 + x124 + x125 - x131 - x142 - x147 + x148 + x153 + x155 - x157
       + x158 - x168 - x179  = 1
 c44:  x183 + x184 + x185 - x191 - x202 - x207 + x208 + x213 + x215 - x217
       + x218 - x228 - x239  = 0
 c45:  x243 + x244 + x245 - x251 - x262 - x267 + x268 + x273 + x275 - x277
       + x278 - x288 - x299  = 0
 c46:  x1 - x2 - x8 - x23 - x25 + x26 - x28 + x37 - x50 + x57  = 0
 c47:  x61 - x62 - x68 - x83 - x85 + x86 - x88 + x97 - x110 + x117  = 0
 c48:  x121 - x122 - x128 - x143 - x145 + x146 - x148 + x157 - x170 + x177  = 0
 c49:  x181 - x182 - x188 - x203 - x205 + x206 - x208 + x217 - x230 + x237  = 0
 c50:  x241 - x242 - x248 - x263 - x265 + x266 - x268 + x277 - x290 + x297  = 0
 c51:  4 x1 + 4 x61 + 4 x121 + 4 x181 + 4 x241 - 2 x301 <= 0
 c52:  4 x2 + 4 x62 + 4 x122 + 4 x182 + 4 x242 - 2 x302 <= 0
 c53:  4 x3 + 4 x63 + 4 x123 + 4 x183 + 4 x243 - 2 x303 <= 0
 c54:  4 x4 + 4 x64 + 4 x124 + 4 x184 + 4 x244 - 2 x304 <= 0
 c55:  4 x5 + 4 x65 + 4 x125 + 4 x185 + 4 x245 - 2 x305 <= 0
 c56:  4 x6 + 4 x66 + 4 x126 + 4 x186 + 4 x246 - 2 x306 <= 0
 c57:  4 x7 + 4 x67 + 4 x127 + 4 x187 + 4 x247 - 2 x307 <= 0
 c58:  4 x8 + 4 x68 + 4 x128 + 4 x188 + 4 x248 - 2 x308 <= 0
 c59:  4 x9 + 4 x69 + 4 x129 + 4 x189 + 4 x249 - 2 x309 <= 0
 c60:  4 x10 + 4 x70 + 4 x130 + 4 x190 + 4 x250 - 2 x310 <= 0
 c61:  4 x11 + 4 x71 + 4 x131 + 4 x191 + 4 x251 - 2 x311 <= 0
 c62:  4 x12 + 4 x72 + 4 x132 + 4 x192 + 4 x252 - 2 x312 <= 0
 c63:  4 x13 + 4 x73 + 4 x133 + 4 x193 + 4 x253 - 2 x313 <= 0
 c64:  4 x14 + 4 x74 + 4 x134 + 4 x194 + 4 x254 - 2 x314 <= 0
 c65:  4 x15 + 4 x75 + 4 x135 + 4 x195 + 4 x255 - 2 x315 <= 0
 c66:  4 x16 + 4 x76 + 4 x136 + 4 x196 + 4 x256 - 2 x316 <= 0
 c67:  4 x17 + 4 x77 + 4 x137 + 4 x197 + 4 x257 - 2 x317 <= 0
 c68:  4 x18 + 4 x78 + 4 x138 + 4 x198 + 4 x258 - 2 x318 <= 0
 c69:  4 x19 + 4 x79 + 4 x139 + 4 x199 + 4 x259 - 2 x319 <= 0
 c70:  4 x20 + 4 x80 + 4 x140 + 4 x200 + 4 x260 - 2 x320 <= 0
 c71:  4 x21 + 4 x81 + 4 x141 + 4 x201 + 4 x261 - 2 x321 <= 0
 c72:  4 x22 + 4 x82 + 4 x142 + 4 x202 + 4 x262 - 2 x322 <= 0
 c73:  4 x23 + 4 x83 + 4 x143 + 4 x203 + 4 x263 - 2 x323 <= 0
 c74:  4 x24 + 4 x84 + 4 x144 + 4 x204 + 4 x264 - 2 x324 <= 0
 c75:  4 x25 + 4 x85 + 4 x145 + 4 x205 + 4 x265 - 2 x325 <= 0
 c76:  4 x26 + 4 x86 + 4 x146 + 4 x206 + 4 x266 - 2 x326 <= 0
 c77:  4 x27 + 4 x87 + 4 x147 + 4 x207 + 4 x267 - 2 x327 <= 0
 c78:  4 x28 + 4 x88 + 4 x148 + 4 x208 + 4 x268 - 2 x328 <= 0
 c79:  4 x29 + 4 x89 + 4 x149 + 4 x209 + 4 x269 - 2 x329 <= 0
 c80:  4 x30 + 4 x90 + 4 x150 + 4 x210 + 4 x270 - 2 x330 <= 0
 c81:  4 x31 + 4 x91 + 4 x151 + 4 x211 + 4 x271 - 2 x331 <= 0
 c82:  4 x32 + 4 x92 + 4 x152 + 4 x212 + 4 x272 - 2 x332 <= 0
 c83:  4 x33 + 4 x93 + 4 x153 + 4 x213 + 4 x273 - 2 x333 <= 0
 c84:  4 x34 + 4 x94 + 4 x154 + 4 x214 + 4 x274 - 2 x334 <= 0
 c85:  4 x35 + 4 x95 + 4 x155 + 4 x215 + 4 x275 - 2 x335 <= 0
 c86:  4 x36 + 4 x96 + 4 x156 + 4 x216 + 4 x276 - 2 x336 <= 0
 c87:  4 x37 + 4 x97 + 4 x157 + 4 x217 + 4 x277 - 2 x337 <= 0
 c88:  4 x38 + 4 x98 + 4 x158 + 4 x218 + 4 x278 - 2 x338 <= 0
 c89:  4 x39 + 4 x99 + 4 x159 + 4 x219 + 4 x279 - 2 x339 <= 0
 c90:  4 x40 + 4 x100 + 4 x160 + 4 x220 + 4 x280 - 2 x340 <= 0
 c91:  4 x41 + 4 x101 + 4 x161 + 4 x221 + 4 x281 - 2 x341 <= 0
 c92:  4 x42 + 4 x102 + 4 x162 + 4 x222 + 4 x282 - 2 x342 <= 0
 c93:  4 x43 + 4 x103 + 4 x163 + 4 x223 + 4 x283 - 2 x343 <= 0
 c94:  4 x44 + 4 x104 + 4 x164 + 4 x224 + 4 x284 - 2 x344 <= 0
 c95:  4 x45 + 4 x105 + 4 x165 + 4 x225 + 4 x285 - 2 x345 <= 0
 c96:  4 x46 + 4 x106 + 4 x166 + 4 x226 + 4 x286 - 2 x346 <= 0
 c97:  4 x47 + 4 x107 + 4 x167 + 4 x227 + 4 x287 - 2 x347 <= 0
 c98:  4 x48 + 4 x108 + 4 x168 + 4 x228 + 4 x288 - 2 x348 <= 0
 c99:  4 x49 + 4 x109 + 4 x169 + 4 x229 + 4 x289 - 2 x349 <= 0
 c100: 4 x50 + 4 x110 + 4 x170 + 4 x230 + 4 x290 - 2 x350 <= 0
 c101: 4 x51 + 4 x111 + 4 x171 + 4 x231 + 4 x291 - 2 x351 <= 0
 c102: 4 x52 + 4 x112 + 4 x172 + 4 x232 + 4 x292 - 2 x352 <= 0
 c103: 4 x53 + 4 x113 + 4 x173 + 4 x233 + 4 x293 - 2 x353 <= 0
 c104: 4 x54 + 4 x114 + 4 x174 + 4 x234 + 4 x294 - 2 x354 <= 0
 c105: 4 x55 + 4 x115 + 4 x175 + 4 x235 + 4 x295 - 2 x355 <= 0
 c106: 4 x56 + 4 x116 + 4 x176 + 4 x236 + 4 x296 - 2 x356 <= 0
 c107: 4 x57 + 4 x117 + 4 x177 + 4 x237 + 4 x297 - 2 x357 <= 0
 c108: 4 x58 + 4 x118 + 4 x178 + 4 x238 + 4 x298 - 2 x358 <= 0
 c109: 4 x59 + 4 x119 + 4 x179 + 4 x239 + 4 x299 - 2 x359 <= 0
 c110: 4 x60 + 4 x120 + 4 x180 + 4 x240 + 4 x300 - 2 x360 <= 0
Bounds
 0 <= x1 <= 1
 0 <= x2 <= 1
 0 <= x3 <= 1
 0 <= x4 <= 1
 0 <= x5 <= 1
 0 <= x6 <= 1
 0 <= x7 <= 1
 0 <= x8 <= 1
 0 <= x9 <= 1
 0 <= x10 <= 1
 0 <= x11 <= 1
 0 <= x12 <= 1
 0 <= x13 <= 1
 0 <= x14 <= 1
 0 <= x15 <= 1
 0 <= x16 <= 1
 0 <= x17 <= 1
 0 <= x18 <= 1
 0 <= x19 <= 1
 0 <= x20 <= 1
 0 <= x21 <= 1
 0 <= x22 <= 1
 0 <= x23 <= 1
 0 <= x24 <= 1
 0 <= x25 <= 1
 0 <= x26 <= 1
 0 <= x27 <= 1
 0 <= x28 <= 1
 0 <= x29 <= 1
 0 <= x30 <= 1
 0 <= x31 <= 1
 0 <= x32 <= 1
 0 <= x33 <= 1
 0 <= x34 <= 1
 0 <= x35 <= 1
 0 <= x36 <= 1
 0 <= x37 <= 1
 0 <= x38 <= 1
 0 <= x39 <= 1
 0 <= x40 <= 1
 0 <= x41 <= 1
 0 <= x42 <= 1
 0 <= x43 <= 1
 0 <= x44 <= 1
 0 <= x45 <= 1
 0 <= x46 <= 1
 0 <= x47 <= 1
 0 <= x48 <= 1
 0 <= x49 <= 1
 0 <= x50 <= 1
 0 <= x51 <= 1
 0 <= x52 <= 1
 0 <= x53 <= 1
 0 <= x54 <= 1
 0 <= x55 <= 1
 0 <= x56 <= 1
 0 <= x57 <= 1
 0 <= x58 <= 1
 0 <= x59 <= 1
 0 <= x60 <= 1
 0 <= x61 <= 1
 0 <= x62 <= 1
 0 <= x63 <= 1
 0 <= x64 <= 1
 0 <= x65 <= 1
 0 <= x66 <= 1
 0 <= x67 <= 1
 0 <= x68 <= 1
 0 <= x69 <= 1
 0 <= x70 <= 1
 0 <= x71 <= 1
 0 <= x72 <= 1
 0 <= x73 <= 1
 0 <= x74 <= 1
 0 <= x75 <= 1
 0 <= x76 <= 1
 0 <= x77 <= 1
 0 <= x78 <= 1
 0 <= x79 <= 1
 0 <= x80 <= 1
 0 <= x81 <= 1
 0 <= x82 <= 1
 0 <= x83 <= 1
 0 <= x84 <= 1
 0 <= x85 <= 1
 0 <= x86 <= 1
 0 <= x87 <= 1
 0 <= x88 <= 1
 0 <= x89 <= 1
 0 <= x90 <= 1
 0 <= x91 <= 1
 0 <= x92 <= 1
 0 <= x93 <= 1
 0 <= x94 <= 1
 0 <= x95 <= 1
 0 <= x96 <= 1
 0 <= x97 <= 1
 0 <= x98 <= 1
 0 <= x99 <= 1
 0 <= x100 <= 1
 0 <= x101 <= 1
 0 <= x102 <= 1
 0 <= x103 <= 1
 0 <= x104 <= 1
 0 <= x105 <= 1
 0 <= x106 <= 1
 0 <= x107 <= 1
 0 <= x108 <= 1
 0 <= x109 <= 1
 0 <= x110 <= 1
 0 <= x111 <= 1
 0 <= x112 <= 1
 0 <= x113 <= 1
 0 <= x114 <= 1
 0 <= x115 <= 1
 0 <= x116 <= 1
 0 <= x117 <= 1
 0 <= x118 <= 1
 0 <= x119 <= 1
 0 <= x120 <= 1
 0 <= x121 <= 1
 0 <= x122 <= 1
 0 <= x123 <= 1
 0 <= x124 <= 1
 0 <= x125 <= 1
 0 <= x126 <= 1
 0 <= x127 <= 1
 0 <= x128 <= 1
 0 <= x129 <= 1
 0 <= x130 <= 1
 0 <= x131 <= 1
 0 <= x132 <= 1
 0 <= x133 <= 1
 0 <= x134 <= 1
 0 <= x135 <= 1
 0 <= x136 <= 1
 0 <= x137 <= 1
 0 <= x138 <= 1
 0 <= x139 <= 1
 0 <= x140 <= 1
 0 <= x141 <= 1
 0 <= x142 <= 1
 0 <= x143 <= 1
 0 <= x144 <= 1
 0 <= x145 <= 1
 0 <= x146 <= 1
 0 <= x147 <= 1
 0 <= x148 <= 1
 0 <= x149 <= 1
 0 <= x150 <= 1
 0 <= x151 <= 1
 0 <= x152 <= 1
 0 <= x153 <= 1
 0 <= x154 <= 1
 0 <= x155 <= 1
 0 <= x156 <= 1
 0 <= x157 <= 1
 0 <= x158 <= 1
 0 <= x159 <= 1
 0 <= x160 <= 1
 0 <= x161 <= 1
 0 <= x162 <= 1
 0 <= x163 <= 1
 0 <= x164 <= 1
 0 <= x165 <= 1
 0 <= x166 <= 1
 0 <= x167 <= 1
 0 <= x168 <= 1
 0 <= x169 <= 1
 0 <= x170 <= 1
 0 <= x171 <= 1
 0 <= x172 <= 1
 0 <= x173 <= 1
 0 <= x174 <= 1
 0 <= x175 <= 1
 0 <= x176 <= 1
 0 <= x177 <= 1
 0 <= x178 <= 1
 0 <= x179 <= 1
 0 <= x180 <= 1
 0 <= x181 <= 1
 0 <= x182 <= 1
 0 <= x183 <= 1
 0 <= x184 <= 1
 0 <= x185 <= 1
 0 <= x186 <= 1
 0 <= x187 <= 1
 0 <= x188 <= 1
 0 <= x189 <= 1
 0 <= x190 <= 1
 0 <= x191 <= 1
 0 <= x192 <= 1
 0 <= x193 <= 1
 0 <= x194 <= 1
 0 <= x195 <= 1
 0 <= x196 <= 1
 0 <= x197 <= 1
 0 <= x198 <= 1
 0 <= x199 <= 1
 0 <= x200 <= 1
 0 <= x201 <= 1
 0 <= x202 <= 1
 0 <= x203 <= 1
 0 <= x204 <= 1
 0 <= x205 <= 1
 0 <= x206 <= 1
 0 <= x207 <= 1
 0 <= x208 <= 1
 0 <= x209 <= 1
 0 <= x210 <= 1
 0 <= x211 <= 1
 0 <= x212 <= 1
 0 <= x213 <= 1
 0 <= x214 <= 1
 0 <= x215 <= 1
 0 <= x216 <= 1
 0 <= x217 <= 1
 0 <= x218 <= 1
 0 <= x219 <= 1
 0 <= x220 <= 1
 0 <= x221 <= 1
 0 <= x222 <= 1
 0 <= x223 <= 1
 0 <= x224 <= 1
 0 <= x225 <= 1
 0 <= x226 <= 1
 0 <= x227 <= 1
 0 <= x228 <= 1
 0 <= x229 <= 1
 0 <= x230 <= 1
 0 <= x231 <= 1
 0 <= x232 <= 1
 0 <= x233 <= 1
 0 <= x234 <= 1
 0 <= x235 <= 1
 0 <= x236 <= 1
 0 <= x237 <= 1
 0 <= x238 <= 1
 0 <= x239 <= 1
 0 <= x240 <= 1
 0 <= x241 <= 1
 0 <= x242 <= 1
 0 <= x243 <= 1
 0 <= x244 <= 1
 0 <= x245 <= 1
 0 <= x246 <= 1
 0 <= x247 <= 1
 0 <= x248 <= 1
 0 <= x249 <= 1
 0 <= x250 <= 1
 0 <= x251 <= 1
 0 <= x252 <= 1
 0 <= x253 <= 1
 0 <= x254 <= 1
 0 <= x255 <= 1
 0 <= x256 <= 1
 0 <= x257 <= 1
 0 <= x258 <= 1
 0 <= x259 <= 1
 0 <= x260 <= 1
 0 <= x261 <= 1
 0 <= x262 <= 1
 0 <= x263 <= 1
 0 <= x264 <= 1
 0 <= x265 <= 1
 0 <= x266 <= 1
 0 <= x267 <= 1
 0 <= x268 <= 1
 0 <= x269 <= 1
 0 <= x270 <= 1
 0 <= x271 <= 1
 0 <= x272 <= 1
 0 <= x273 <= 1
 0 <= x274 <= 1
 0 <= x275 <= 1
 0 <= x276 <= 1
 0 <= x277 <= 1
 0 <= x278 <= 1
 0 <= x279 <= 1
 0 <= x280 <= 1
 0 <= x281 <= 1
 0 <= x282 <= 1
 0 <= x283 <= 1
 0 <= x284 <= 1
 0 <= x285 <= 1
 0 <= x286 <= 1
 0 <= x287 <= 1
 0 <= x288 <= 1
 0 <= x289 <= 1
 0 <= x290 <= 1
 0 <= x291 <= 1
 0 <= x292 <= 1
 0 <= x293 <= 1
 0 <= x294 <= 1
 0 <= x295 <= 1
 0 <= x296 <= 1
 0 <= x297 <= 1
 0 <= x298 <= 1
 0 <= x299 <= 1
 0 <= x300 <= 1
 0 <= x301 <= 1
 0 <= x302 <= 1
 0 <= x303 <= 1
 0 <= x304 <= 1
 0 <= x305 <= 1
 0 <= x306 <= 1
 0 <= x307 <= 1
 0 <= x308 <= 1
 0 <= x309 <= 1
 0 <= x310 <= 1
 0 <= x311 <= 1
 0 <= x312 <= 1
 0 <= x313 <= 1
 0 <= x314 <= 1
 0 <= x315 <= 1
 0 <= x316 <= 1
 0 <= x317 <= 1
 0 <= x318 <= 1
 0 <= x319 <= 1
 0 <= x320 <= 1
 0 <= x321 <= 1
 0 <= x322 <= 1
 0 <= x323 <= 1
 0 <= x324 <= 1
 0 <= x325 <= 1
 0 <= x326 <= 1
 0 <= x327 <= 1
 0 <= x328 <= 1
 0 <= x329 <= 1
 0 <= x330 <= 1
 0 <= x331 <= 1
 0 <= x332 <= 1
 0 <= x333 <= 1
 0 <= x334 <= 1
 0 <= x335 <= 1
 0 <= x336 <= 1
 0 <= x337 <= 1
 0 <= x338 <= 1
 0 <= x339 <= 1
 0 <= x340 <= 1
 0 <= x341 <= 1
 0 <= x342 <= 1
 0 <= x343 <= 1
 0 <= x344 <= 1
 0 <= x345 <= 1
 0 <= x346 <= 1
 0 <= x347 <= 1
 0 <= x348 <= 1
 0 <= x349 <= 1
 0 <= x350 <= 1
 0 <= x351 <= 1
 0 <= x352 <= 1
 0 <= x353 <= 1
 0 <= x354 <= 1
 0 <= x355 <= 1
 0 <= x356 <= 1
 0 <= x357 <= 1
 0 <= x358 <= 1
 0 <= x359 <= 1
 0 <= x360 <= 1
Binaries
 x301  x302  x303  x304  x305  x306  x307  x308  x309  x310  x311  x312  x313 
 x314  x315  x316  x317  x318  x319  x320  x321  x322  x323  x324  x325  x326 
 x327  x328  x329  x330  x331  x332  x333  x334  x335  x336  x337  x338  x339 
 x340  x341  x342  x343  x344  x345  x346  x347  x348  x349  x350  x351  x352 
 x353  x354  x355  x356  x357  x358  x359  x360 
End
